# Solution for model micodag
# Objective value = 8.29362915100339
s_0_1 0
s_1_0 0
s_0_2 0
s_2_0 0
s_1_2 5.9204956391613894e-01
s_2_1 0
s_2_3 0
s_3_2 0
s_2_5 0
s_5_2 6.4745579759743466e-01
s_3_4 0
s_4_3 0
s_3_5 0
s_5_3 0.725881637707877
s_3_6 0
s_6_3 4.5967484143141579e-01
s_4_5 0
s_5_4 0
s_4_6 0
s_6_4 5.8448057379376639e-01
s_4_7 0
s_7_4 2.8993119106732035e-01
s_5_6 0
s_6_5 0
s_5_7 0
s_7_5 6.4006333939715443e-01
s_5_8 0
s_8_5 0.377400729133087
s_6_7 0
s_7_6 0
s_6_8 0
s_8_6 6.4387230655633587e-01
s_7_8 0
s_8_7 3.4323044964904481e-01
s_0_0 2.0842617866716937e+00
s_1_1 1.6319551257210949e+00
s_2_2 1.0764642101400419e+00
s_3_3 9.3602419080039345e-01
s_4_4 6.5192854219018459e-01
s_5_5 1.8580378576382370e+00
s_6_6 9.0672646366100818e-01
s_7_7 9.2044515336593458e-01
s_8_8 9.9271161251739071e-01
Gamma_0_0 1.4436972628192151e+00
Gamma_0_1 0
Gamma_0_2 0
Gamma_0_3 0
Gamma_0_4 0
Gamma_0_5 0
Gamma_0_6 0
Gamma_0_7 0
Gamma_0_8 0
Gamma_1_0 0
Gamma_1_1 1.2774799903407861e+00
Gamma_1_2 7.6944757060903046e-01
Gamma_1_3 0
Gamma_1_4 0
Gamma_1_5 0
Gamma_1_6 0
Gamma_1_7 0
Gamma_1_8 0
Gamma_2_0 0
Gamma_2_1 0
Gamma_2_2 1.0375279322216062e+00
Gamma_2_3 0
Gamma_2_4 0
Gamma_2_5 0
Gamma_2_6 0
Gamma_2_7 0
Gamma_2_8 0
Gamma_3_0 0
Gamma_3_1 0
Gamma_3_2 0
Gamma_3_3 9.6748343179632479e-01
Gamma_3_4 0
Gamma_3_5 0
Gamma_3_6 0
Gamma_3_7 0
Gamma_3_8 0
Gamma_4_0 0
Gamma_4_1 0
Gamma_4_2 0
Gamma_4_3 0
Gamma_4_4 8.0742092008455224e-01
Gamma_4_5 0
Gamma_4_6 0
Gamma_4_7 0
Gamma_4_8 0
Gamma_5_0 0
Gamma_5_1 0
Gamma_5_2 -8.0464638046624848e-01
Gamma_5_3 -0.851986876488058
Gamma_5_4 0
Gamma_5_5 1.3630986235919385e+00
Gamma_5_6 0
Gamma_5_7 0
Gamma_5_8 0
Gamma_6_0 0
Gamma_6_1 0
Gamma_6_2 0
Gamma_6_3 -6.7799324585973275e-01
Gamma_6_4 7.6451329209750607e-01
Gamma_6_5 0
Gamma_6_6 9.5222185632393908e-01
Gamma_6_7 0
Gamma_6_8 0
Gamma_7_0 0
Gamma_7_1 0
Gamma_7_2 0
Gamma_7_3 0
Gamma_7_4 0.538452589433202
Gamma_7_5 8.0003958614380744e-01
Gamma_7_6 0
Gamma_7_7 9.5939832883215659e-01
Gamma_7_8 0
Gamma_8_0 0
Gamma_8_1 0
Gamma_8_2 0
Gamma_8_3 0
Gamma_8_4 0
Gamma_8_5 -0.614329495574718
Gamma_8_6 0.802416541801287
Gamma_8_7 0.585858728405616
Gamma_8_8 9.9634914187617518e-01
psi_0 0
psi_1 0
psi_2 3
psi_3 3
psi_4 2
psi_5 2
psi_6 1
psi_7 1
psi_8 0
g_0_0 0
g_0_1 0
g_0_2 0
g_0_3 0
g_0_4 0
g_0_5 0
g_0_6 0
g_0_7 0
g_0_8 0
g_1_0 0
g_1_1 0
g_1_2 1
g_1_3 0
g_1_4 0
g_1_5 0
g_1_6 0
g_1_7 0
g_1_8 0
g_2_0 0
g_2_1 0
g_2_2 0
g_2_3 0
g_2_4 0
g_2_5 0
g_2_6 0
g_2_7 0
g_2_8 0
g_3_0 0
g_3_1 0
g_3_2 0
g_3_3 0
g_3_4 0
g_3_5 0
g_3_6 0
g_3_7 0
g_3_8 0
g_4_0 0
g_4_1 0
g_4_2 0
g_4_3 0
g_4_4 0
g_4_5 0
g_4_6 0
g_4_7 0
g_4_8 0
g_5_0 0
g_5_1 0
g_5_2 1
g_5_3 1
g_5_4 0
g_5_5 0
g_5_6 0
g_5_7 0
g_5_8 0
g_6_0 0
g_6_1 0
g_6_2 0
g_6_3 1
g_6_4 1
g_6_5 0
g_6_6 0
g_6_7 0
g_6_8 0
g_7_0 0
g_7_1 0
g_7_2 0
g_7_3 0
g_7_4 1
g_7_5 1
g_7_6 0
g_7_7 0
g_7_8 0
g_8_0 0
g_8_1 0
g_8_2 0
g_8_3 0
g_8_4 0
g_8_5 1
g_8_6 1
g_8_7 1
g_8_8 0
T_0 -7.3441473340676566e-01
T_1 -4.8977875966944850e-01
T_2 -7.3681790767082589e-02
T_3 6.6113957966308590e-02
T_4 4.2782032092958389e-01
T_5 -0.61952101566213
T_6 9.7914457967689827e-02
T_7 8.2897863608408784e-02
T_8 7.3150775427279768e-03
